
  32    4
  10   10   10   10

   0   0   0   0   0   3 2 11 31 
   1  10  10  10  10   2 18 3 
   2  10  10  10  10   2 17 4 
   5  10  10  10  10   1 5 
   6  10  10  10  10   2 30 6 
   1  10  10  10  10   1 7 
   5  10  10  10  10   1 8 
   9  10  10  10  10   2 29 9 
   2  10  10  10  10   1 10 
   4  10  10  10  10   1 12 
   7  10  10  10  10   1 12 
  10  10  10  10  10   2 28 13 
   6  10  10  10  10   3 27 21 14 
   4  10  10  10  10   1 15 
   3  10  10  10  10   1 16 
   6  10  10  10  10   3 26 25 19 
   2  10  10  10  10   3 26 25 19 
   6  10  10  10  10   3 25 21 19 
   2  10  10  10  10   1 20 
   6  10  10  10  10   2 24 22 
   5  10  10  10  10   1 22 
   3  10  10  10  10   1 23 
   8  10  10  10  10   1 32
   7  10  10  10  10   1 32
   9  10  10  10  10   1 32
   7  10  10  10  10   1 32
   8  10  10  10  10   1 32
   1  10  10  10  10   1 32
   1  10  10  10  10   1 32
   7  10  10  10  10   1 32
   8  10  10  10  10   1 32
   0   0   0   0   0   0 
